10 30
1 2 1
1 3 1
1 4 1
1 5 1
1 6 1
1 7 1
1 8 1
1 9 1
1 10 1
2 3 0
2 4 1
2 5 1
2 6 1
2 7 1
2 8 0
2 9 0
2 10 1
3 4 1
3 5 1
3 6 0
3 7 1
3 8 0
3 9 1
3 10 0
4 5 0
4 6 0
4 7 1
4 8 0
4 9 0
4 10 0
5 6 1
5 7 1
5 8 0
5 9 0
5 10 1
6 7 1
6 8 1
6 9 1
6 10 1
7 8 0
7 9 1
7 10 1
8 9 1
8 10 0
9 10 1
